
Gurobi 11.0.3 (linux64) logging started Fri Nov 22 06:12:01 2024

Set parameter LogFile to value "/home/yihong/Coding/OR_SUC/SUC_results_bigM100000_thread4/case24_ieee_rts_theta0.1_epsilon0.05_gurobi_seed650000_num_gen100_N_WDR100_load_scaling_factor1_exact_T16quadra_cost.txt"
Set parameter TimeLimit to value 3600
Gurobi Optimizer version 11.0.3 build v11.0.3rc0 (linux64 - "Ubuntu 20.04.6 LTS")

CPU model: AMD EPYC 7532 32-Core Processor, instruction set [SSE2|AVX|AVX2]
Thread count: 64 physical cores, 128 logical processors, using up to 4 threads

Optimize a model with 38307 rows, 20041 columns and 883306 nonzeros
Model fingerprint: 0x9e8711d2
Model has 1600 quadratic constraints
Variable types: 18341 continuous, 1700 integer (1700 binary)
Coefficient statistics:
  Matrix range     [1e-05, 1e+05]
  QMatrix range    [2e-03, 8e-03]
  QLMatrix range   [2e-01, 6e+01]
  Objective range  [1e+00, 1e+00]
  Bounds range     [1e+00, 1e+00]
  RHS range        [1e+00, 1e+05]
Presolve removed 31285 rows and 8522 columns
Presolve time: 0.26s
Presolved: 7022 rows, 11519 columns, 40914 nonzeros
Presolved model has 1600 quadratic constraint(s)
Variable types: 9837 continuous, 1682 integer (1682 binary)

Root relaxation: objective 1.912218e+04, 5206 iterations, 0.12 seconds (0.15 work units)

    Nodes    |    Current Node    |     Objective Bounds      |     Work
 Expl Unexpl |  Obj  Depth IntInf | Incumbent    BestBd   Gap | It/Node Time

     0     0 19122.1819    0   27          - 19122.1819      -     -    0s
     0     0 301745.941    0  398          - 301745.941      -     -    0s
     0     0 301949.772    0  397          - 301949.772      -     -    0s
     0     0 487861.820    0  382          - 487861.820      -     -    0s
     0     0 487903.698    0  290          - 487903.698      -     -    1s
     0     0 488448.503    0  263          - 488448.503      -     -    1s
     0     0 488593.147    0  273          - 488593.147      -     -    1s
     0     0 488593.949    0  271          - 488593.949      -     -    1s
     0     0 488594.246    0  271          - 488594.246      -     -    1s
     0     2 488594.246    0  271          - 488594.246      -     -    2s
H  440   317                    489007.68959 488626.919  0.08%  18.5    3s
*  440   317             138    489007.68959 488626.919  0.08%  18.5    3s
H  499   294                    488700.09685 488633.977  0.01%  17.2    3s
*  499   294             133    488700.09685 488633.977  0.01%  17.2    3s

Cutting planes:
  Gomory: 32
  Implied bound: 354
  MIR: 91
  Flow cover: 101

Explored 511 nodes (23480 simplex iterations) in 3.69 seconds (4.17 work units)
Thread count was 4 (of 128 available processors)

Solution count 3: 488700 488700 489008 

Optimal solution found (tolerance 1.00e-03)
Warning: max constraint violation (5.5605e-08) exceeds tolerance
Best objective 4.887000968525e+05, best bound 4.886339768347e+05, gap 0.0135%
